%%% static parameters %%%
timespan = 1;
Clients_N = [4000];
Demand_W = [15];
Lt0 = [4];
Lt1 = [4];
SS_ = [0.85];
DS_D = [20];
K = [200];
MA = [500];
HC = [0.05];
%%% dynamic parameters %%%
lost_ratio_sales_ret_th = 0.000965985242735439;
lost_ratio_sales_ret_w = 81;
lost_ratio_sales_dis_th = 0.0007334942796972161;
lost_ratio_sales_dis_w = 89;
lost_ratio_sales_fac_th = 0.00043222662725701946;
lost_ratio_sales_fac_w = 86;
stock_customer_MA_mean_relative_th = 0.4859838884372324;
stock_customer_MA_mean_relative_w = 69;
stock_distributor_MA_mean_relative_th = 0.49524475267436485;
stock_distributor_MA_mean_relative_w = 64;
stock_retailer_MA_mean_relative_th = 0.5548628630469673;
stock_retailer_MA_mean_relative_w = 97;
stock_factory_MA_mean_relative_th = 0.6320933193714876;
stock_factory_MA_mean_relative_w = 64;
